17	4
22	23	21	32	
0	0	0	0	0	3	2	3	4	
3	10	9	8	5	3	6	12	16	
1	7	0	5	2	3	5	6	8	
10	5	0	0	4	3	11	14	17	
9	0	10	2	0	3	7	10	17	
125	7	7	4	0	1	17	
250	4	8	5	2	3	11	12	17	
100	7	5	10	8	3	9	17	17	
175	7	0	0	0	3	15	17	17	
150	6	9	5	8	2	17	17	
75	0	7	1	0	3	13	17	17	
150	8	7	0	9	2	14	17	
9	0	6	9	9	1	17	
10	7	1	2	9	1	15	
1	7	3	1	10	1	17	
7	6	5	4	5	1	17	
0	0	0	0	0	0	
